p edge 80 608
e 1 4
e 1 6
e 1 9
e 1 12
e 1 16
e 1 29
e 1 36
e 1 42
e 1 44
e 1 63
e 1 69
e 2 4
e 2 20
e 2 28
e 2 46
e 2 48
e 2 49
e 2 56
e 2 65
e 2 73
e 2 78
e 3 4
e 3 7
e 3 13
e 3 15
e 3 16
e 3 23
e 3 38
e 3 42
e 3 46
e 3 55
e 3 56
e 3 59
e 3 60
e 3 63
e 4 5
e 4 8
e 4 9
e 4 15
e 4 16
e 4 18
e 4 22
e 4 25
e 4 26
e 4 28
e 4 30
e 4 34
e 4 36
e 4 42
e 4 43
e 4 48
e 4 50
e 4 69
e 4 77
e 5 7
e 5 10
e 5 19
e 5 22
e 5 25
e 5 27
e 5 30
e 5 31
e 5 32
e 5 35
e 5 39
e 5 42
e 5 43
e 5 45
e 5 55
e 5 60
e 5 61
e 5 67
e 5 68
e 5 71
e 5 75
e 5 77
e 5 80
e 6 13
e 6 15
e 6 20
e 6 22
e 6 24
e 6 29
e 6 34
e 6 46
e 6 49
e 6 51
e 6 52
e 6 58
e 6 59
e 6 72
e 7 9
e 7 11
e 7 12
e 7 14
e 7 15
e 7 32
e 7 34
e 7 37
e 7 48
e 7 51
e 7 58
e 7 64
e 7 65
e 7 70
e 7 72
e 7 74
e 8 9
e 8 24
e 8 30
e 8 33
e 8 35
e 8 37
e 8 38
e 8 39
e 8 46
e 8 51
e 8 54
e 8 58
e 8 59
e 8 61
e 8 66
e 8 71
e 8 72
e 9 12
e 9 13
e 9 14
e 9 17
e 9 18
e 9 29
e 9 39
e 9 40
e 9 41
e 9 42
e 9 48
e 9 53
e 9 56
e 9 69
e 9 70
e 9 72
e 10 21
e 10 24
e 10 29
e 10 31
e 10 36
e 10 38
e 10 39
e 10 43
e 10 56
e 10 57
e 10 62
e 10 70
e 11 16
e 11 23
e 11 28
e 11 31
e 11 39
e 11 41
e 11 43
e 11 48
e 11 51
e 11 58
e 11 66
e 11 67
e 11 69
e 11 70
e 11 72
e 11 79
e 12 14
e 12 21
e 12 23
e 12 31
e 12 33
e 12 47
e 12 65
e 12 75
e 12 76
e 13 14
e 13 29
e 13 30
e 13 36
e 13 43
e 13 44
e 13 45
e 13 48
e 13 56
e 13 57
e 13 63
e 13 65
e 13 66
e 13 76
e 13 79
e 13 80
e 14 22
e 14 31
e 14 33
e 14 39
e 14 40
e 14 51
e 14 59
e 14 65
e 14 66
e 14 71
e 14 76
e 15 17
e 15 18
e 15 19
e 15 20
e 15 21
e 15 27
e 15 30
e 15 37
e 15 39
e 15 41
e 15 55
e 15 58
e 15 60
e 15 68
e 15 71
e 15 73
e 16 19
e 16 35
e 16 36
e 16 37
e 16 43
e 16 47
e 16 48
e 16 52
e 16 54
e 16 55
e 16 56
e 16 61
e 16 64
e 16 65
e 16 66
e 16 70
e 16 71
e 16 75
e 17 30
e 17 36
e 17 38
e 17 41
e 17 42
e 17 44
e 17 48
e 17 49
e 17 50
e 17 55
e 17 58
e 17 62
e 17 68
e 17 72
e 17 78
e 18 23
e 18 24
e 18 31
e 18 32
e 18 33
e 18 36
e 18 41
e 18 43
e 18 51
e 18 53
e 18 56
e 18 59
e 18 63
e 18 64
e 18 70
e 18 77
e 18 78
e 19 24
e 19 25
e 19 26
e 19 29
e 19 42
e 19 50
e 19 57
e 19 58
e 19 64
e 19 66
e 19 67
e 19 68
e 19 73
e 19 74
e 20 22
e 20 26
e 20 43
e 20 48
e 20 49
e 20 57
e 20 58
e 20 74
e 20 75
e 20 76
e 20 80
e 21 23
e 21 29
e 21 30
e 21 32
e 21 37
e 21 42
e 21 46
e 21 60
e 21 63
e 21 72
e 21 76
e 21 79
e 22 38
e 22 45
e 22 59
e 22 64
e 22 78
e 22 80
e 23 34
e 23 41
e 23 43
e 23 56
e 23 65
e 24 34
e 24 35
e 24 44
e 24 54
e 24 55
e 24 60
e 24 62
e 24 68
e 24 71
e 24 78
e 24 80
e 25 28
e 25 34
e 25 43
e 25 63
e 25 67
e 25 69
e 25 74
e 25 79
e 26 33
e 26 38
e 26 41
e 26 46
e 26 54
e 26 62
e 26 63
e 26 70
e 27 36
e 27 41
e 27 42
e 27 52
e 27 56
e 27 62
e 27 63
e 27 64
e 27 67
e 27 78
e 28 31
e 28 42
e 28 43
e 28 51
e 28 63
e 28 69
e 28 78
e 28 80
e 29 37
e 29 38
e 29 39
e 29 45
e 29 48
e 29 60
e 29 62
e 29 70
e 29 72
e 30 37
e 30 40
e 30 42
e 30 43
e 30 47
e 30 51
e 30 53
e 30 54
e 30 62
e 30 65
e 30 66
e 30 67
e 30 77
e 30 80
e 31 32
e 31 35
e 31 36
e 31 39
e 31 41
e 31 45
e 31 53
e 31 56
e 31 69
e 31 79
e 32 48
e 32 52
e 32 72
e 33 40
e 33 42
e 33 49
e 33 53
e 33 54
e 33 75
e 33 76
e 33 80
e 34 38
e 34 44
e 34 47
e 34 50
e 34 51
e 34 52
e 34 75
e 34 76
e 34 77
e 34 78
e 34 79
e 35 37
e 35 50
e 35 52
e 35 53
e 35 60
e 35 61
e 35 63
e 35 64
e 35 68
e 35 71
e 35 78
e 36 37
e 36 38
e 36 44
e 36 51
e 36 58
e 36 63
e 36 65
e 36 76
e 36 80
e 37 38
e 37 39
e 37 51
e 37 63
e 37 66
e 37 73
e 37 77
e 38 40
e 38 49
e 38 52
e 38 53
e 38 56
e 38 57
e 38 60
e 38 62
e 38 66
e 38 78
e 39 45
e 39 47
e 39 48
e 39 58
e 39 65
e 39 69
e 39 72
e 39 75
e 39 76
e 40 41
e 40 54
e 40 65
e 40 75
e 40 77
e 41 43
e 41 46
e 41 47
e 41 57
e 41 63
e 41 69
e 41 71
e 41 74
e 42 45
e 42 58
e 42 60
e 42 65
e 42 67
e 42 68
e 42 71
e 42 78
e 42 79
e 43 46
e 43 49
e 43 53
e 43 54
e 43 55
e 43 62
e 43 69
e 43 78
e 43 79
e 44 47
e 44 50
e 44 75
e 44 78
e 44 80
e 45 60
e 45 61
e 45 62
e 45 67
e 45 77
e 46 69
e 46 75
e 47 55
e 47 59
e 47 77
e 48 60
e 48 64
e 48 69
e 49 54
e 49 56
e 49 60
e 50 60
e 50 67
e 50 68
e 51 58
e 51 61
e 51 64
e 51 66
e 51 69
e 51 74
e 51 75
e 52 54
e 52 55
e 52 60
e 52 74
e 53 54
e 53 55
e 53 71
e 53 78
e 53 79
e 54 57
e 54 69
e 54 73
e 54 77
e 54 79
e 55 64
e 55 70
e 55 77
e 55 79
e 56 57
e 56 62
e 56 65
e 56 74
e 56 75
e 56 77
e 56 78
e 57 60
e 57 61
e 57 65
e 57 68
e 57 69
e 57 74
e 57 75
e 58 60
e 58 63
e 58 80
e 59 60
e 59 63
e 59 73
e 60 63
e 60 65
e 60 67
e 60 68
e 60 73
e 60 75
e 61 63
e 61 73
e 61 75
e 61 78
e 62 63
e 62 64
e 62 68
e 62 71
e 62 73
e 62 75
e 63 64
e 63 68
e 63 73
e 64 66
e 64 67
e 64 73
e 64 77
e 65 71
e 65 72
e 65 76
e 66 74
e 67 70
e 67 72
e 67 77
e 68 70
e 68 80
e 69 72
e 69 73
e 69 76
e 70 71
e 70 77
e 70 79
e 71 77
e 71 79
e 72 75
e 73 77
e 76 78
e 79 80